\ Model p-center
\ LP format - for model browsing. Use MPS format to capture full model detail.
Minimize
  0.5 L + 0.5 eta
Subject To
 epigraph[0]: 2337.942761495257 x[0,1] + 1725.14593015369 x[0,2] - L <= 0
 epigraph[1]: 2354.93680095894 x[1,0] + 1069.051539666855 x[1,2] - L <= 0
 epigraph[2]: 1784.648110323535 x[2,0] + 1097.943570093646 x[2,1] - L <= 0
 p: y[0] + y[1] + y[2] = 1
 x<y[0,0]: x[0,0] - y[0] <= 0
 x<y[0,1]: x[0,1] - y[1] <= 0
 x<y[0,2]: x[0,2] - y[2] <= 0
 x<y[1,0]: x[1,0] - y[0] <= 0
 x<y[1,1]: x[1,1] - y[1] <= 0
 x<y[1,2]: x[1,2] - y[2] <= 0
 x<y[2,0]: x[2,0] - y[0] <= 0
 x<y[2,1]: x[2,1] - y[1] <= 0
 x<y[2,2]: x[2,2] - y[2] <= 0
 sumx[0]: x[0,0] + x[0,1] + x[0,2] = 1
 sumx[1]: x[1,0] + x[1,1] + x[1,2] = 1
 sumx[2]: x[2,0] + x[2,1] + x[2,2] = 1
 eta>k[0]: - L3[0] + eta >= 0
 eta>k[1]: - L3[1] + eta >= 0
 sumcdv<L3k[0,0]: 1640.545202562176 v[0,0,1] + 2244.606097201082 v[0,0,2]
   - L3[0] <= 0
 sumcdv<L3k[0,1]: 3548.007155282447 v[0,1,0] + 1295.733568886421 v[0,1,2]
   - L3[0] <= 0
 sumcdv<L3k[0,2]: 557.0746574428853 v[0,2,0] + 659.9175705362811 v[0,2,1]
   - L3[0] <= 0
 sumcdv<L3k[1,0]: 4182.820410141991 v[1,0,1] + 1512.551537252894 v[1,0,2]
   - L3[1] <= 0
 sumcdv<L3k[1,1]: 2252.254585874779 v[1,1,0] + 556.881136016228 v[1,1,2]
   - L3[1] <= 0
 sumcdv<L3k[1,2]: 1192.9312046581 v[1,2,0] + 591.459791384079 v[1,2,1]
   - L3[1] <= 0
 v<y+u[0,0,0]: - y[0] + v[0,0,0] - u[0,0] <= 0
 v<y+u[0,0,1]: - y[1] + v[0,0,1] - u[0,1] <= 0
 v<y+u[0,0,2]: - y[2] + v[0,0,2] - u[0,2] <= 0
 v<y+u[0,1,0]: - y[0] + v[0,1,0] - u[0,0] <= 0
 v<y+u[0,1,1]: - y[1] + v[0,1,1] - u[0,1] <= 0
 v<y+u[0,1,2]: - y[2] + v[0,1,2] - u[0,2] <= 0
 v<y+u[0,2,0]: - y[0] + v[0,2,0] - u[0,0] <= 0
 v<y+u[0,2,1]: - y[1] + v[0,2,1] - u[0,1] <= 0
 v<y+u[0,2,2]: - y[2] + v[0,2,2] - u[0,2] <= 0
 v<y+u[1,0,0]: - y[0] + v[1,0,0] - u[1,0] <= 0
 v<y+u[1,0,1]: - y[1] + v[1,0,1] - u[1,1] <= 0
 v<y+u[1,0,2]: - y[2] + v[1,0,2] - u[1,2] <= 0
 v<y+u[1,1,0]: - y[0] + v[1,1,0] - u[1,0] <= 0
 v<y+u[1,1,1]: - y[1] + v[1,1,1] - u[1,1] <= 0
 v<y+u[1,1,2]: - y[2] + v[1,1,2] - u[1,2] <= 0
 v<y+u[1,2,0]: - y[0] + v[1,2,0] - u[1,0] <= 0
 v<y+u[1,2,1]: - y[1] + v[1,2,1] - u[1,1] <= 0
 v<y+u[1,2,2]: - y[2] + v[1,2,2] - u[1,2] <= 0
 v<1-ak[0,0,0]: v[0,0,0] <= 1
 v<1-ak[0,0,1]: v[0,0,1] <= 0
 v<1-ak[0,0,2]: v[0,0,2] <= 1
 v<1-ak[0,1,0]: v[0,1,0] <= 1
 v<1-ak[0,1,1]: v[0,1,1] <= 0
 v<1-ak[0,1,2]: v[0,1,2] <= 1
 v<1-ak[0,2,0]: v[0,2,0] <= 1
 v<1-ak[0,2,1]: v[0,2,1] <= 0
 v<1-ak[0,2,2]: v[0,2,2] <= 1
 v<1-ak[1,0,0]: v[1,0,0] <= 1
 v<1-ak[1,0,1]: v[1,0,1] <= 1
 v<1-ak[1,0,2]: v[1,0,2] <= 0
 v<1-ak[1,1,0]: v[1,1,0] <= 1
 v<1-ak[1,1,1]: v[1,1,1] <= 1
 v<1-ak[1,1,2]: v[1,1,2] <= 0
 v<1-ak[1,2,0]: v[1,2,0] <= 1
 v<1-ak[1,2,1]: v[1,2,1] <= 1
 v<1-ak[1,2,2]: v[1,2,2] <= 0
 sumv[0,0]: v[0,0,0] + v[0,0,1] + v[0,0,2] = 1
 sumv[0,1]: v[0,1,0] + v[0,1,1] + v[0,1,2] = 1
 sumv[0,2]: v[0,2,0] + v[0,2,1] + v[0,2,2] = 1
 sumv[1,0]: v[1,0,0] + v[1,0,1] + v[1,0,2] = 1
 sumv[1,1]: v[1,1,0] + v[1,1,1] + v[1,1,2] = 1
 sumv[1,2]: v[1,2,0] + v[1,2,1] + v[1,2,2] = 1
 u+y<1[0,0]: y[0] + u[0,0] <= 1
 u+y<1[0,1]: y[1] + u[0,1] <= 1
 u+y<1[0,2]: y[2] + u[0,2] <= 1
 u+y<1[1,0]: y[0] + u[1,0] <= 1
 u+y<1[1,1]: y[1] + u[1,1] <= 1
 u+y<1[1,2]: y[2] + u[1,2] <= 1
 u+ak<1[0,0]: u[0,0] <= 1
 u+ak<1[0,1]: u[0,1] <= 0
 u+ak<1[0,2]: u[0,2] <= 1
 u+ak<1[1,0]: u[1,0] <= 1
 u+ak<1[1,1]: u[1,1] <= 1
 u+ak<1[1,2]: u[1,2] <= 0
 2S-p[0]: y[0] + y[2] + u[0,0] + u[0,1] + u[0,2] = 1
 2S-p[1]: y[0] + y[1] + u[1,0] + u[1,1] + u[1,2] = 1
Bounds
Binaries
 x[0,0] x[0,1] x[0,2] x[1,0] x[1,1] x[1,2] x[2,0] x[2,1] x[2,2] y[0] y[1]
 y[2]
End
